Ordonnancement/plne/source/petit_instance/2job/2job_19.dat
data;
param nombreJob := 2;
param nombreRessource := 3;
param duree := 1 2 2 2;
param capaciteRessource := 1 4 2 9 3 15;
param besoinRessource : 1 2 3 :=
                    1   3 1 5
                    2   3 5 5;
end;

